--
&inputph
  prefix   = 'WSe2'
  ldisp    = .true
  fildyn   = 'WSe2.dyn'
  nq1=1,
  nq2=1,
  nq3=1,
  tr2_ph   =  1.0d-14
/
