&control
   calculation = 'scf'
   prefix = 'WSe2'
   pseudo_dir = '../pseudos'
/
&system
   ecutwfc = 80.0
   ibrav = 0
   nat = 3
   ntyp = 2
/
&electrons
   electron_maxstep = 100
   conv_thr = 1e-10
   diago_full_acc = .true.
   diago_david_ndim = 4
   mixing_ndim = 8
   mixing_mode = 'plain'
   diagonalization = 'david'
   mixing_beta = 0.7
/
CELL_PARAMETERS angstrom
   3.32068486 0.0 0.0
   -1.66034242 2.87579745 0.0
   0.0 0.0 17.52708472
ATOMIC_SPECIES 
   W 183.84 'W.upf'
   Se 78.96 'Se.upf'
ATOMIC_POSITIONS crystal
   W -0.0 -0.0 0.0
   Se 0.333333 -0.333333 0.095743142
   Se 0.333333 -0.333333 -0.095743142
K_POINTS automatic
4 4 1 0 0 0
